* Problem:    ej-prescaled
* Class:      LP
* Rows:       1
* Columns:    3
* Non-zeros:  3
* Format:     Free MPS
*
NAME ej-prescaled
ROWS
 N R0000000
 E R0000001
COLUMNS
 c0 R0000000 1.6449553413 R0000001 51015
 c1 R0000001 -51015
 c2 R0000001 -51015
RHS
BOUNDS
 LO BND1 c0 0.6079192394
ENDATA
